41 41
24 4
38 10
9 12
20 5
41 16
39 12
37 18
17 8
40 3
36 1
3 14
4 7
34 7
7 15
19 8
16 3
28 16
29 20
35 4
33 19
30 13
12 5
10 20
11 9
21 17
23 13
18 2
15 11
27 10
32 19
14 11
13 9
6 15
1 14
5 6
31 2
8 21
26 6
2 1
25 18
22 17
